(set-logic QF_FF)
(define-sort FF0 () (_ FiniteField 18446744069414584321))
(declare-fun s_1 () FF0)
(declare-fun s_2 () FF0)
(declare-fun s_3 () FF0)
(declare-fun s_4 () FF0)
(declare-fun s_5 () FF0)
(declare-fun s_6 () FF0)
(declare-fun s_8 () FF0)
(declare-fun s_7 () FF0)
(declare-fun s_11 () FF0)
(declare-fun s_10 () FF0)
(declare-fun s_14 () FF0)
(declare-fun s_13 () FF0)
(declare-fun s_17 () FF0)
(declare-fun s_16 () FF0)
(declare-fun v_0 () FF0)
(declare-fun v_131 () FF0)
(declare-fun v_132 () FF0)
(declare-fun v_133 () FF0)
(declare-fun v_134 () FF0)
(declare-fun v_135 () FF0)
(declare-fun v_18 () FF0)
(declare-fun v_27 () FF0)
(declare-fun v_28 () FF0)
(declare-fun v_29 () FF0)
(declare-fun v_30 () FF0)
(declare-fun v_31 () FF0)
(declare-fun v_32 () FF0)
(declare-fun v_33 () FF0)
(declare-fun v_41 () FF0)
(declare-fun v_45 () FF0)
(declare-fun v_54 () FF0)
(declare-fun v_55 () FF0)
(declare-fun v_56 () FF0)
(declare-fun v_57 () FF0)
(declare-fun v_58 () FF0)
(declare-fun v_59 () FF0)
(declare-fun v_60 () FF0)
(declare-fun v_68 () FF0)
(declare-fun v_72 () FF0)
(declare-fun v_81 () FF0)
(declare-fun v_82 () FF0)
(declare-fun v_83 () FF0)
(declare-fun v_84 () FF0)
(declare-fun v_85 () FF0)
(declare-fun v_86 () FF0)
(declare-fun v_87 () FF0)
(declare-fun v_95 () FF0)
(declare-fun v_99 () FF0)
(declare-fun v_108 () FF0)
(declare-fun v_109 () FF0)
(declare-fun v_110 () FF0)
(declare-fun v_111 () FF0)
(declare-fun v_112 () FF0)
(declare-fun v_113 () FF0)
(declare-fun v_114 () FF0)
(declare-fun v_122 () FF0)
(assert (= (ff.add s_6 (ff.mul s_8 (as ff18446744069414584320 FF0)) ) (as ff0 FF0)))
(assert (= (ff.add s_7 (ff.mul s_1 (as ff18446744069414584320 FF0)) ) (as ff0 FF0)))
(assert (= (ff.add s_6 (as ff18446744069414584320 FF0) (ff.mul s_11 (as ff18446744069414584320 FF0)) ) (as ff0 FF0)))
(assert (= (ff.add s_10 (ff.mul s_2 (as ff18446744069414584320 FF0)) ) (as ff0 FF0)))
(assert (= (ff.add (ff.mul s_14 (as ff18446744069414584320 FF0)) (as ff18446744069414584319 FF0) s_6 ) (as ff0 FF0)))
(assert (= (ff.add (ff.mul s_3 (as ff18446744069414584320 FF0)) s_13 ) (as ff0 FF0)))
(assert (= (ff.add (as ff18446744069414584318 FF0) (ff.mul s_17 (as ff18446744069414584320 FF0)) s_6 ) (as ff0 FF0)))
(assert (= (ff.add s_16 (ff.mul s_4 (as ff18446744069414584320 FF0)) ) (as ff0 FF0)))
(assert (= (ff.add s_4 s_1 s_3 s_2 (ff.mul s_5 (as ff18446744069414584320 FF0)) ) (as ff0 FF0)))
(define-fun @IsZero_0 ((macro_v_0 FF0) (macro_v_12 FF0) (macro_v_2 FF0) (macro_v_4 FF0) (macro_v_6 FF0) (macro_v_7 FF0) (macro_v_8 FF0) (macro_v_10 FF0) ) Bool
true)

(define-fun @Decoder_1 ((macro_v_0 FF0) (macro_v_131 FF0) (macro_v_132 FF0) (macro_v_133 FF0) (macro_v_134 FF0) (macro_v_135 FF0) (macro_v_18 FF0) (macro_v_27 FF0) (macro_v_28 FF0) (macro_v_29 FF0) (macro_v_30 FF0) (macro_v_31 FF0) (macro_v_32 FF0) (macro_v_33 FF0) (macro_v_41 FF0) (macro_v_45 FF0) (macro_v_54 FF0) (macro_v_55 FF0) (macro_v_56 FF0) (macro_v_57 FF0) (macro_v_58 FF0) (macro_v_59 FF0) (macro_v_60 FF0) (macro_v_68 FF0) (macro_v_72 FF0) (macro_v_81 FF0) (macro_v_82 FF0) (macro_v_83 FF0) (macro_v_84 FF0) (macro_v_85 FF0) (macro_v_86 FF0) (macro_v_87 FF0) (macro_v_95 FF0) (macro_v_99 FF0) (macro_v_108 FF0) (macro_v_109 FF0) (macro_v_110 FF0) (macro_v_111 FF0) (macro_v_112 FF0) (macro_v_113 FF0) (macro_v_114 FF0) (macro_v_122 FF0) ) Bool
 (and  (and  (and  (and  (and  (and  (! true :meta-data "array.new 4 %nondet") (and  (! true :meta-data "array.new 4 %array_@count") (and  (! true :meta-data "array.new 4 %array_@comp_@out") (and  (! true :meta-data "%arg1 := 0") (and  (! (and  (and  (! true :meta-data "%c1_6 := 1") (and  (! true :meta-data "%pod_7_@count := %c1_6") (and  (! true :meta-data "%pod_7_@comp_@out := 0") (and  (! true :meta-data "array.write %pod_7_@count %array_@count[%arg1]") (and  (! true :meta-data "array.write %pod_7_@comp_@out %array_@comp_@out[%arg1]") (! true :meta-data "%arg1 := felt.add %arg1 1") ) ) ) ) ) (and  (and  (! true :meta-data "%c1_6 := 1") (and  (! true :meta-data "%pod_7_@count := %c1_6") (and  (! true :meta-data "%pod_7_@comp_@out := 0") (and  (! true :meta-data "array.write %pod_7_@count %array_@count[%arg1]") (and  (! true :meta-data "array.write %pod_7_@comp_@out %array_@comp_@out[%arg1]") (! true :meta-data "%arg1 := felt.add %arg1 1") ) ) ) ) ) (and  (and  (! true :meta-data "%c1_6 := 1") (and  (! true :meta-data "%pod_7_@count := %c1_6") (and  (! true :meta-data "%pod_7_@comp_@out := 0") (and  (! true :meta-data "array.write %pod_7_@count %array_@count[%arg1]") (and  (! true :meta-data "array.write %pod_7_@comp_@out %array_@comp_@out[%arg1]") (! true :meta-data "%arg1 := felt.add %arg1 1") ) ) ) ) ) (and  (! true :meta-data "%c1_6 := 1") (and  (! true :meta-data "%pod_7_@count := %c1_6") (and  (! true :meta-data "%pod_7_@comp_@out := 0") (and  (! true :meta-data "array.write %pod_7_@count %array_@count[%arg1]") (and  (! true :meta-data "array.write %pod_7_@comp_@out %array_@comp_@out[%arg1]") (! true :meta-data "%arg1 := felt.add %arg1 1") ) ) ) ) ) ) ) ) :meta-data "repeat_exp 4") (and  (! true :meta-data "array.new 4 %array_0_@in") (and  (! true :meta-data "%felt_const_0 := 0") (and  (! true :meta-data "%felt_const_0_1 := 0") (and  (! true :meta-data "%arg1 := %felt_const_0_1") (and  (! true :meta-data "%arg2 := %felt_const_0") (and  (! true :meta-data "array.copy %array_0_@in %arg3_@in") (and  (! (= macro_v_18 (ff.sub macro_v_0 0)) :meta-data "%1_aft69 := felt.sub %arg0 %arg1") (and  (! true :meta-data "checkZero#0.in := %1_aft69") (and  (! true :meta-data "%4_aft69 := %arg1") (and  (! true :meta-data "array.write checkZero#0.in %arg3_@in[%4_aft69]") (and  (! true :meta-data "%5_aft69 := %arg1") (and  (! true :meta-data "array.read %array_@count[%5_aft69] %6_aft69_@count") (and  (! true :meta-data "%7_aft69 := %arg1") (and  (! true :meta-data "array.read %arg3_@in[%7_aft69] checkZero#0.in") (and  (! true :meta-data "%9_aft69 := %6_aft69_@count") (and  (! true :meta-data "%c1_6_aft69 := 1") (and  (! true :meta-data "%10_aft69 := felt.sub %9_aft69 %c1_6_aft69") (and  (! true :meta-data "%6_aft69_@count := %10_aft69") (and  (! true :meta-data "%c0_7_aft69 := 0") (and  (! true :meta-data "%11_aft69 := bool.eq %10_aft69 %c0_7_aft69") (and  (! (and  (! (@IsZero_0 macro_v_18 macro_v_27 macro_v_28 macro_v_29 macro_v_30 macro_v_31 macro_v_32 macro_v_33) :meta-data "call @IsZero_0 (checkZero#0.in) to checkZero#0.out") (and  (! true :meta-data "%6_aft69_@comp_@out := checkZero#0.out") (and  (! true :meta-data "%24_aft69 := %arg1") (and  (! true :meta-data "array.write %6_aft69_@count %array_@count[%24_aft69]") (! true :meta-data "array.write %6_aft69_@comp_@out %array_@comp_@out[%24_aft69]") ) ) ) ) :meta-data "if (%11_aft69 == 1)") (and  (! true :meta-data "%12_aft69 := %arg1") (and  (! true :meta-data "array.read %array_@comp_@out[%12_aft69] %13_aft69_@comp_@out") (and  (! true :meta-data "%14_aft69_@out := %13_aft69_@comp_@out") (and  (! true :meta-data "%15_aft69 := %14_aft69_@out") (and  (! true :meta-data "%16_aft69 := %arg1") (and  (! true :meta-data "array.write %15_aft69 %nondet[%16_aft69]") (and  (! true :meta-data "%17_aft69 := %arg1") (and  (! true :meta-data "array.read %nondet[%17_aft69] %18_aft69") (and  (! (= macro_v_41 (ff.add 0 macro_v_27)) :meta-data "%19_aft69 := felt.add %arg2 %18_aft69") (and  (! true :meta-data "%felt_const_1_aft69 := 1") (and  (! true :meta-data "%20_aft69 := felt.add %arg1 %felt_const_1_aft69") (and  (! true :meta-data "%arg1 := %20_aft69") (and  (! true :meta-data "%arg2 := %19_aft69") (and  (! (= macro_v_45 (ff.sub macro_v_0 1)) :meta-data "%1_aft69 := felt.sub %arg0 %arg1") (and  (! true :meta-data "checkZero#1.in := %1_aft69") (and  (! true :meta-data "%4_aft69 := %arg1") (and  (! true :meta-data "array.write checkZero#1.in %arg3_@in[%4_aft69]") (and  (! true :meta-data "%5_aft69 := %arg1") (and  (! true :meta-data "array.read %array_@count[%5_aft69] %6_aft69_@count") (and  (! true :meta-data "%7_aft69 := %arg1") (and  (! true :meta-data "array.read %arg3_@in[%7_aft69] checkZero#1.in") (and  (! true :meta-data "%9_aft69 := %6_aft69_@count") (and  (! true :meta-data "%c1_6_aft69 := 1") (and  (! true :meta-data "%10_aft69 := felt.sub %9_aft69 %c1_6_aft69") (and  (! true :meta-data "%6_aft69_@count := %10_aft69") (and  (! true :meta-data "%c0_7_aft69 := 0") (and  (! true :meta-data "%11_aft69 := bool.eq %10_aft69 %c0_7_aft69") (and  (! (and  (! (@IsZero_0 macro_v_45 macro_v_54 macro_v_55 macro_v_56 macro_v_57 macro_v_58 macro_v_59 macro_v_60) :meta-data "call @IsZero_0 (checkZero#1.in) to checkZero#1.out") (and  (! true :meta-data "%6_aft69_@comp_@out := checkZero#1.out") (and  (! true :meta-data "%24_aft69 := %arg1") (and  (! true :meta-data "array.write %6_aft69_@count %array_@count[%24_aft69]") (! true :meta-data "array.write %6_aft69_@comp_@out %array_@comp_@out[%24_aft69]") ) ) ) ) :meta-data "if (%11_aft69 == 1)") (and  (! true :meta-data "%12_aft69 := %arg1") (and  (! true :meta-data "array.read %array_@comp_@out[%12_aft69] %13_aft69_@comp_@out") (and  (! true :meta-data "%14_aft69_@out := %13_aft69_@comp_@out") (and  (! true :meta-data "%15_aft69 := %14_aft69_@out") (and  (! true :meta-data "%16_aft69 := %arg1") (and  (! true :meta-data "array.write %15_aft69 %nondet[%16_aft69]") (and  (! true :meta-data "%17_aft69 := %arg1") (and  (! true :meta-data "array.read %nondet[%17_aft69] %18_aft69") (and  (! (= macro_v_68 (ff.add macro_v_41 macro_v_54)) :meta-data "%19_aft69 := felt.add %arg2 %18_aft69") (and  (! true :meta-data "%felt_const_1_aft69 := 1") (and  (! true :meta-data "%20_aft69 := felt.add %arg1 %felt_const_1_aft69") (and  (! true :meta-data "%arg1 := %20_aft69") (and  (! true :meta-data "%arg2 := %19_aft69") (and  (! (= macro_v_72 (ff.sub macro_v_0 2)) :meta-data "%1_aft69 := felt.sub %arg0 %arg1") (and  (! true :meta-data "checkZero#2.in := %1_aft69") (and  (! true :meta-data "%4_aft69 := %arg1") (and  (! true :meta-data "array.write checkZero#2.in %arg3_@in[%4_aft69]") (and  (! true :meta-data "%5_aft69 := %arg1") (and  (! true :meta-data "array.read %array_@count[%5_aft69] %6_aft69_@count") (and  (! true :meta-data "%7_aft69 := %arg1") (and  (! true :meta-data "array.read %arg3_@in[%7_aft69] checkZero#2.in") (and  (! true :meta-data "%9_aft69 := %6_aft69_@count") (and  (! true :meta-data "%c1_6_aft69 := 1") (and  (! true :meta-data "%10_aft69 := felt.sub %9_aft69 %c1_6_aft69") (and  (! true :meta-data "%6_aft69_@count := %10_aft69") (and  (! true :meta-data "%c0_7_aft69 := 0") (and  (! true :meta-data "%11_aft69 := bool.eq %10_aft69 %c0_7_aft69") (and  (! (and  (! (@IsZero_0 macro_v_72 macro_v_81 macro_v_82 macro_v_83 macro_v_84 macro_v_85 macro_v_86 macro_v_87) :meta-data "call @IsZero_0 (checkZero#2.in) to checkZero#2.out") (and  (! true :meta-data "%6_aft69_@comp_@out := checkZero#2.out") (and  (! true :meta-data "%24_aft69 := %arg1") (and  (! true :meta-data "array.write %6_aft69_@count %array_@count[%24_aft69]") (! true :meta-data "array.write %6_aft69_@comp_@out %array_@comp_@out[%24_aft69]") ) ) ) ) :meta-data "if (%11_aft69 == 1)") (and  (! true :meta-data "%12_aft69 := %arg1") (and  (! true :meta-data "array.read %array_@comp_@out[%12_aft69] %13_aft69_@comp_@out") (and  (! true :meta-data "%14_aft69_@out := %13_aft69_@comp_@out") (and  (! true :meta-data "%15_aft69 := %14_aft69_@out") (and  (! true :meta-data "%16_aft69 := %arg1") (and  (! true :meta-data "array.write %15_aft69 %nondet[%16_aft69]") (and  (! true :meta-data "%17_aft69 := %arg1") (and  (! true :meta-data "array.read %nondet[%17_aft69] %18_aft69") (and  (! (= macro_v_95 (ff.add macro_v_68 macro_v_81)) :meta-data "%19_aft69 := felt.add %arg2 %18_aft69") (and  (! true :meta-data "%felt_const_1_aft69 := 1") (and  (! true :meta-data "%20_aft69 := felt.add %arg1 %felt_const_1_aft69") (and  (! true :meta-data "%arg1 := %20_aft69") (and  (! true :meta-data "%arg2 := %19_aft69") (and  (! (= macro_v_99 (ff.sub macro_v_0 3)) :meta-data "%1_aft69 := felt.sub %arg0 %arg1") (and  (! true :meta-data "checkZero#3.in := %1_aft69") (and  (! true :meta-data "%4_aft69 := %arg1") (and  (! true :meta-data "array.write checkZero#3.in %arg3_@in[%4_aft69]") (and  (! true :meta-data "%5_aft69 := %arg1") (and  (! true :meta-data "array.read %array_@count[%5_aft69] %6_aft69_@count") (and  (! true :meta-data "%7_aft69 := %arg1") (and  (! true :meta-data "array.read %arg3_@in[%7_aft69] checkZero#3.in") (and  (! true :meta-data "%9_aft69 := %6_aft69_@count") (and  (! true :meta-data "%c1_6_aft69 := 1") (and  (! true :meta-data "%10_aft69 := felt.sub %9_aft69 %c1_6_aft69") (and  (! true :meta-data "%6_aft69_@count := %10_aft69") (and  (! true :meta-data "%c0_7_aft69 := 0") (and  (! true :meta-data "%11_aft69 := bool.eq %10_aft69 %c0_7_aft69") (and  (! (and  (! (@IsZero_0 macro_v_99 macro_v_108 macro_v_109 macro_v_110 macro_v_111 macro_v_112 macro_v_113 macro_v_114) :meta-data "call @IsZero_0 (checkZero#3.in) to checkZero#3.out") (and  (! true :meta-data "%6_aft69_@comp_@out := checkZero#3.out") (and  (! true :meta-data "%24_aft69 := %arg1") (and  (! true :meta-data "array.write %6_aft69_@count %array_@count[%24_aft69]") (! true :meta-data "array.write %6_aft69_@comp_@out %array_@comp_@out[%24_aft69]") ) ) ) ) :meta-data "if (%11_aft69 == 1)") (and  (! true :meta-data "%12_aft69 := %arg1") (and  (! true :meta-data "array.read %array_@comp_@out[%12_aft69] %13_aft69_@comp_@out") (and  (! true :meta-data "%14_aft69_@out := %13_aft69_@comp_@out") (and  (! true :meta-data "%15_aft69 := %14_aft69_@out") (and  (! true :meta-data "%16_aft69 := %arg1") (and  (! true :meta-data "array.write %15_aft69 %nondet[%16_aft69]") (and  (! true :meta-data "%17_aft69 := %arg1") (and  (! true :meta-data "array.read %nondet[%17_aft69] %18_aft69") (and  (! (= macro_v_122 (ff.add macro_v_95 macro_v_108)) :meta-data "%19_aft69 := felt.add %arg2 %18_aft69") (and  (! true :meta-data "%arg2 := %19_aft69") (and  (! true :meta-data "%0#1 := %arg2") (and  (! true :meta-data "success := %0#1") (and  (! true :meta-data "array.new 4 %array_2_@out") (and  (! true :meta-data "%arg1 := 0") (and  (! (and  (and  (! true :meta-data "array.read %array_@comp_@out[%arg1] %1_@comp_@out") (and  (! true :meta-data "%2_@out := %1_@comp_@out") (and  (! true :meta-data "array.write %2_@out %array_2_@out[%arg1]") (! true :meta-data "%arg1 := felt.add %arg1 1") ) ) ) (and  (and  (! true :meta-data "array.read %array_@comp_@out[%arg1] %1_@comp_@out") (and  (! true :meta-data "%2_@out := %1_@comp_@out") (and  (! true :meta-data "array.write %2_@out %array_2_@out[%arg1]") (! true :meta-data "%arg1 := felt.add %arg1 1") ) ) ) (and  (and  (! true :meta-data "array.read %array_@comp_@out[%arg1] %1_@comp_@out") (and  (! true :meta-data "%2_@out := %1_@comp_@out") (and  (! true :meta-data "array.write %2_@out %array_2_@out[%arg1]") (! true :meta-data "%arg1 := felt.add %arg1 1") ) ) ) (and  (! true :meta-data "array.read %array_@comp_@out[%arg1] %1_@comp_@out") (and  (! true :meta-data "%2_@out := %1_@comp_@out") (and  (! true :meta-data "array.write %2_@out %array_2_@out[%arg1]") (! true :meta-data "%arg1 := felt.add %arg1 1") ) ) ) ) ) ) :meta-data "repeat_exp 4") (! true :meta-data "array.copy %nondet out") ) ) ) ) ) ) ) ) ) ) ) ) ) ) ) ) ) ) ) ) ) ) ) ) ) ) ) ) ) ) ) ) ) ) ) ) ) ) ) ) ) ) ) ) ) ) ) ) ) ) ) ) ) ) ) ) ) ) ) ) ) ) ) ) ) ) ) ) ) ) ) ) ) ) ) ) ) ) ) ) ) ) ) ) ) ) ) ) ) ) ) ) ) ) ) ) ) ) ) ) ) ) ) ) ) ) ) ) ) ) ) ) ) ) ) ) ) ) ) ) ) ) ) ) ) (= macro_v_131 macro_v_27) ) (= macro_v_132 macro_v_54) ) (= macro_v_133 macro_v_81) ) (= macro_v_134 macro_v_108) ) (= macro_v_135 macro_v_122) ) )

(define-fun main ((macro_v_0 FF0) (macro_v_42 FF0) (macro_v_43 FF0) (macro_v_44 FF0) (macro_v_45 FF0) (macro_v_46 FF0) (macro_v_1 FF0) (macro_v_2 FF0) (macro_v_3 FF0) (macro_v_4 FF0) (macro_v_5 FF0) (macro_v_6 FF0) (macro_v_7 FF0) (macro_v_8 FF0) (macro_v_9 FF0) (macro_v_10 FF0) (macro_v_11 FF0) (macro_v_12 FF0) (macro_v_13 FF0) (macro_v_14 FF0) (macro_v_15 FF0) (macro_v_16 FF0) (macro_v_17 FF0) (macro_v_18 FF0) (macro_v_19 FF0) (macro_v_20 FF0) (macro_v_21 FF0) (macro_v_22 FF0) (macro_v_23 FF0) (macro_v_24 FF0) (macro_v_25 FF0) (macro_v_26 FF0) (macro_v_27 FF0) (macro_v_28 FF0) (macro_v_29 FF0) (macro_v_30 FF0) (macro_v_31 FF0) (macro_v_32 FF0) (macro_v_33 FF0) (macro_v_34 FF0) (macro_v_35 FF0) (macro_v_36 FF0) (macro_v_37 FF0) (macro_v_38 FF0) (macro_v_39 FF0) (macro_v_40 FF0) (macro_v_41 FF0) ) Bool
true)

(assert  (and  (and  (and  (and  (and  (and  (! true :meta-data "array.new 4 %nondet") (and  (! true :meta-data "array.new 4 %array_@count") (and  (! true :meta-data "array.new 4 %array_@comp_@out") (and  (! true :meta-data "%arg1 := 0") (and  (! (and  (and  (! true :meta-data "%c1_6 := 1") (and  (! true :meta-data "%pod_7_@count := %c1_6") (and  (! true :meta-data "%pod_7_@comp_@out := 0") (and  (! true :meta-data "array.write %pod_7_@count %array_@count[%arg1]") (and  (! true :meta-data "array.write %pod_7_@comp_@out %array_@comp_@out[%arg1]") (! true :meta-data "%arg1 := felt.add %arg1 1") ) ) ) ) ) (and  (and  (! true :meta-data "%c1_6 := 1") (and  (! true :meta-data "%pod_7_@count := %c1_6") (and  (! true :meta-data "%pod_7_@comp_@out := 0") (and  (! true :meta-data "array.write %pod_7_@count %array_@count[%arg1]") (and  (! true :meta-data "array.write %pod_7_@comp_@out %array_@comp_@out[%arg1]") (! true :meta-data "%arg1 := felt.add %arg1 1") ) ) ) ) ) (and  (and  (! true :meta-data "%c1_6 := 1") (and  (! true :meta-data "%pod_7_@count := %c1_6") (and  (! true :meta-data "%pod_7_@comp_@out := 0") (and  (! true :meta-data "array.write %pod_7_@count %array_@count[%arg1]") (and  (! true :meta-data "array.write %pod_7_@comp_@out %array_@comp_@out[%arg1]") (! true :meta-data "%arg1 := felt.add %arg1 1") ) ) ) ) ) (and  (! true :meta-data "%c1_6 := 1") (and  (! true :meta-data "%pod_7_@count := %c1_6") (and  (! true :meta-data "%pod_7_@comp_@out := 0") (and  (! true :meta-data "array.write %pod_7_@count %array_@count[%arg1]") (and  (! true :meta-data "array.write %pod_7_@comp_@out %array_@comp_@out[%arg1]") (! true :meta-data "%arg1 := felt.add %arg1 1") ) ) ) ) ) ) ) ) :meta-data "repeat_exp 4") (and  (! true :meta-data "array.new 4 %array_0_@in") (and  (! true :meta-data "%felt_const_0 := 0") (and  (! true :meta-data "%felt_const_0_1 := 0") (and  (! true :meta-data "%arg1 := %felt_const_0_1") (and  (! true :meta-data "%arg2 := %felt_const_0") (and  (! true :meta-data "array.copy %array_0_@in %arg3_@in") (and  (! (= v_18 (ff.sub v_0 0)) :meta-data "%1_aft69 := felt.sub %arg0 %arg1") (and  (! true :meta-data "checkZero#0.in := %1_aft69") (and  (! true :meta-data "%4_aft69 := %arg1") (and  (! true :meta-data "array.write checkZero#0.in %arg3_@in[%4_aft69]") (and  (! true :meta-data "%5_aft69 := %arg1") (and  (! true :meta-data "array.read %array_@count[%5_aft69] %6_aft69_@count") (and  (! true :meta-data "%7_aft69 := %arg1") (and  (! true :meta-data "array.read %arg3_@in[%7_aft69] checkZero#0.in") (and  (! true :meta-data "%9_aft69 := %6_aft69_@count") (and  (! true :meta-data "%c1_6_aft69 := 1") (and  (! true :meta-data "%10_aft69 := felt.sub %9_aft69 %c1_6_aft69") (and  (! true :meta-data "%6_aft69_@count := %10_aft69") (and  (! true :meta-data "%c0_7_aft69 := 0") (and  (! true :meta-data "%11_aft69 := bool.eq %10_aft69 %c0_7_aft69") (and  (! (and  (! (@IsZero_0 v_18 v_27 v_28 v_29 v_30 v_31 v_32 v_33) :meta-data "call @IsZero_0 (checkZero#0.in) to checkZero#0.out") (and  (! true :meta-data "%6_aft69_@comp_@out := checkZero#0.out") (and  (! true :meta-data "%24_aft69 := %arg1") (and  (! true :meta-data "array.write %6_aft69_@count %array_@count[%24_aft69]") (! true :meta-data "array.write %6_aft69_@comp_@out %array_@comp_@out[%24_aft69]") ) ) ) ) :meta-data "if (%11_aft69 == 1)") (and  (! true :meta-data "%12_aft69 := %arg1") (and  (! true :meta-data "array.read %array_@comp_@out[%12_aft69] %13_aft69_@comp_@out") (and  (! true :meta-data "%14_aft69_@out := %13_aft69_@comp_@out") (and  (! true :meta-data "%15_aft69 := %14_aft69_@out") (and  (! true :meta-data "%16_aft69 := %arg1") (and  (! true :meta-data "array.write %15_aft69 %nondet[%16_aft69]") (and  (! true :meta-data "%17_aft69 := %arg1") (and  (! true :meta-data "array.read %nondet[%17_aft69] %18_aft69") (and  (! (= v_41 (ff.add 0 v_27)) :meta-data "%19_aft69 := felt.add %arg2 %18_aft69") (and  (! true :meta-data "%felt_const_1_aft69 := 1") (and  (! true :meta-data "%20_aft69 := felt.add %arg1 %felt_const_1_aft69") (and  (! true :meta-data "%arg1 := %20_aft69") (and  (! true :meta-data "%arg2 := %19_aft69") (and  (! (= v_45 (ff.sub v_0 1)) :meta-data "%1_aft69 := felt.sub %arg0 %arg1") (and  (! true :meta-data "checkZero#1.in := %1_aft69") (and  (! true :meta-data "%4_aft69 := %arg1") (and  (! true :meta-data "array.write checkZero#1.in %arg3_@in[%4_aft69]") (and  (! true :meta-data "%5_aft69 := %arg1") (and  (! true :meta-data "array.read %array_@count[%5_aft69] %6_aft69_@count") (and  (! true :meta-data "%7_aft69 := %arg1") (and  (! true :meta-data "array.read %arg3_@in[%7_aft69] checkZero#1.in") (and  (! true :meta-data "%9_aft69 := %6_aft69_@count") (and  (! true :meta-data "%c1_6_aft69 := 1") (and  (! true :meta-data "%10_aft69 := felt.sub %9_aft69 %c1_6_aft69") (and  (! true :meta-data "%6_aft69_@count := %10_aft69") (and  (! true :meta-data "%c0_7_aft69 := 0") (and  (! true :meta-data "%11_aft69 := bool.eq %10_aft69 %c0_7_aft69") (and  (! (and  (! (@IsZero_0 v_45 v_54 v_55 v_56 v_57 v_58 v_59 v_60) :meta-data "call @IsZero_0 (checkZero#1.in) to checkZero#1.out") (and  (! true :meta-data "%6_aft69_@comp_@out := checkZero#1.out") (and  (! true :meta-data "%24_aft69 := %arg1") (and  (! true :meta-data "array.write %6_aft69_@count %array_@count[%24_aft69]") (! true :meta-data "array.write %6_aft69_@comp_@out %array_@comp_@out[%24_aft69]") ) ) ) ) :meta-data "if (%11_aft69 == 1)") (and  (! true :meta-data "%12_aft69 := %arg1") (and  (! true :meta-data "array.read %array_@comp_@out[%12_aft69] %13_aft69_@comp_@out") (and  (! true :meta-data "%14_aft69_@out := %13_aft69_@comp_@out") (and  (! true :meta-data "%15_aft69 := %14_aft69_@out") (and  (! true :meta-data "%16_aft69 := %arg1") (and  (! true :meta-data "array.write %15_aft69 %nondet[%16_aft69]") (and  (! true :meta-data "%17_aft69 := %arg1") (and  (! true :meta-data "array.read %nondet[%17_aft69] %18_aft69") (and  (! (= v_68 (ff.add v_41 v_54)) :meta-data "%19_aft69 := felt.add %arg2 %18_aft69") (and  (! true :meta-data "%felt_const_1_aft69 := 1") (and  (! true :meta-data "%20_aft69 := felt.add %arg1 %felt_const_1_aft69") (and  (! true :meta-data "%arg1 := %20_aft69") (and  (! true :meta-data "%arg2 := %19_aft69") (and  (! (= v_72 (ff.sub v_0 2)) :meta-data "%1_aft69 := felt.sub %arg0 %arg1") (and  (! true :meta-data "checkZero#2.in := %1_aft69") (and  (! true :meta-data "%4_aft69 := %arg1") (and  (! true :meta-data "array.write checkZero#2.in %arg3_@in[%4_aft69]") (and  (! true :meta-data "%5_aft69 := %arg1") (and  (! true :meta-data "array.read %array_@count[%5_aft69] %6_aft69_@count") (and  (! true :meta-data "%7_aft69 := %arg1") (and  (! true :meta-data "array.read %arg3_@in[%7_aft69] checkZero#2.in") (and  (! true :meta-data "%9_aft69 := %6_aft69_@count") (and  (! true :meta-data "%c1_6_aft69 := 1") (and  (! true :meta-data "%10_aft69 := felt.sub %9_aft69 %c1_6_aft69") (and  (! true :meta-data "%6_aft69_@count := %10_aft69") (and  (! true :meta-data "%c0_7_aft69 := 0") (and  (! true :meta-data "%11_aft69 := bool.eq %10_aft69 %c0_7_aft69") (and  (! (and  (! (@IsZero_0 v_72 v_81 v_82 v_83 v_84 v_85 v_86 v_87) :meta-data "call @IsZero_0 (checkZero#2.in) to checkZero#2.out") (and  (! true :meta-data "%6_aft69_@comp_@out := checkZero#2.out") (and  (! true :meta-data "%24_aft69 := %arg1") (and  (! true :meta-data "array.write %6_aft69_@count %array_@count[%24_aft69]") (! true :meta-data "array.write %6_aft69_@comp_@out %array_@comp_@out[%24_aft69]") ) ) ) ) :meta-data "if (%11_aft69 == 1)") (and  (! true :meta-data "%12_aft69 := %arg1") (and  (! true :meta-data "array.read %array_@comp_@out[%12_aft69] %13_aft69_@comp_@out") (and  (! true :meta-data "%14_aft69_@out := %13_aft69_@comp_@out") (and  (! true :meta-data "%15_aft69 := %14_aft69_@out") (and  (! true :meta-data "%16_aft69 := %arg1") (and  (! true :meta-data "array.write %15_aft69 %nondet[%16_aft69]") (and  (! true :meta-data "%17_aft69 := %arg1") (and  (! true :meta-data "array.read %nondet[%17_aft69] %18_aft69") (and  (! (= v_95 (ff.add v_68 v_81)) :meta-data "%19_aft69 := felt.add %arg2 %18_aft69") (and  (! true :meta-data "%felt_const_1_aft69 := 1") (and  (! true :meta-data "%20_aft69 := felt.add %arg1 %felt_const_1_aft69") (and  (! true :meta-data "%arg1 := %20_aft69") (and  (! true :meta-data "%arg2 := %19_aft69") (and  (! (= v_99 (ff.sub v_0 3)) :meta-data "%1_aft69 := felt.sub %arg0 %arg1") (and  (! true :meta-data "checkZero#3.in := %1_aft69") (and  (! true :meta-data "%4_aft69 := %arg1") (and  (! true :meta-data "array.write checkZero#3.in %arg3_@in[%4_aft69]") (and  (! true :meta-data "%5_aft69 := %arg1") (and  (! true :meta-data "array.read %array_@count[%5_aft69] %6_aft69_@count") (and  (! true :meta-data "%7_aft69 := %arg1") (and  (! true :meta-data "array.read %arg3_@in[%7_aft69] checkZero#3.in") (and  (! true :meta-data "%9_aft69 := %6_aft69_@count") (and  (! true :meta-data "%c1_6_aft69 := 1") (and  (! true :meta-data "%10_aft69 := felt.sub %9_aft69 %c1_6_aft69") (and  (! true :meta-data "%6_aft69_@count := %10_aft69") (and  (! true :meta-data "%c0_7_aft69 := 0") (and  (! true :meta-data "%11_aft69 := bool.eq %10_aft69 %c0_7_aft69") (and  (! (and  (! (@IsZero_0 v_99 v_108 v_109 v_110 v_111 v_112 v_113 v_114) :meta-data "call @IsZero_0 (checkZero#3.in) to checkZero#3.out") (and  (! true :meta-data "%6_aft69_@comp_@out := checkZero#3.out") (and  (! true :meta-data "%24_aft69 := %arg1") (and  (! true :meta-data "array.write %6_aft69_@count %array_@count[%24_aft69]") (! true :meta-data "array.write %6_aft69_@comp_@out %array_@comp_@out[%24_aft69]") ) ) ) ) :meta-data "if (%11_aft69 == 1)") (and  (! true :meta-data "%12_aft69 := %arg1") (and  (! true :meta-data "array.read %array_@comp_@out[%12_aft69] %13_aft69_@comp_@out") (and  (! true :meta-data "%14_aft69_@out := %13_aft69_@comp_@out") (and  (! true :meta-data "%15_aft69 := %14_aft69_@out") (and  (! true :meta-data "%16_aft69 := %arg1") (and  (! true :meta-data "array.write %15_aft69 %nondet[%16_aft69]") (and  (! true :meta-data "%17_aft69 := %arg1") (and  (! true :meta-data "array.read %nondet[%17_aft69] %18_aft69") (and  (! (= v_122 (ff.add v_95 v_108)) :meta-data "%19_aft69 := felt.add %arg2 %18_aft69") (and  (! true :meta-data "%arg2 := %19_aft69") (and  (! true :meta-data "%0#1 := %arg2") (and  (! true :meta-data "success := %0#1") (and  (! true :meta-data "array.new 4 %array_2_@out") (and  (! true :meta-data "%arg1 := 0") (and  (! (and  (and  (! true :meta-data "array.read %array_@comp_@out[%arg1] %1_@comp_@out") (and  (! true :meta-data "%2_@out := %1_@comp_@out") (and  (! true :meta-data "array.write %2_@out %array_2_@out[%arg1]") (! true :meta-data "%arg1 := felt.add %arg1 1") ) ) ) (and  (and  (! true :meta-data "array.read %array_@comp_@out[%arg1] %1_@comp_@out") (and  (! true :meta-data "%2_@out := %1_@comp_@out") (and  (! true :meta-data "array.write %2_@out %array_2_@out[%arg1]") (! true :meta-data "%arg1 := felt.add %arg1 1") ) ) ) (and  (and  (! true :meta-data "array.read %array_@comp_@out[%arg1] %1_@comp_@out") (and  (! true :meta-data "%2_@out := %1_@comp_@out") (and  (! true :meta-data "array.write %2_@out %array_2_@out[%arg1]") (! true :meta-data "%arg1 := felt.add %arg1 1") ) ) ) (and  (! true :meta-data "array.read %array_@comp_@out[%arg1] %1_@comp_@out") (and  (! true :meta-data "%2_@out := %1_@comp_@out") (and  (! true :meta-data "array.write %2_@out %array_2_@out[%arg1]") (! true :meta-data "%arg1 := felt.add %arg1 1") ) ) ) ) ) ) :meta-data "repeat_exp 4") (! true :meta-data "array.copy %nondet out") ) ) ) ) ) ) ) ) ) ) ) ) ) ) ) ) ) ) ) ) ) ) ) ) ) ) ) ) ) ) ) ) ) ) ) ) ) ) ) ) ) ) ) ) ) ) ) ) ) ) ) ) ) ) ) ) ) ) ) ) ) ) ) ) ) ) ) ) ) ) ) ) ) ) ) ) ) ) ) ) ) ) ) ) ) ) ) ) ) ) ) ) ) ) ) ) ) ) ) ) ) ) ) ) ) ) ) ) ) ) ) ) ) ) ) ) ) ) ) ) ) ) ) ) ) (= v_131 v_27) ) (= v_132 v_54) ) (= v_133 v_81) ) (= v_134 v_108) ) (= v_135 v_122) ) )
(assert (=> (= s_8 "v_18") (= s_7 "v_27")))
(assert (=> (= s_11 "v_45") (= s_10 "v_54")))
(assert (=> (= s_14 "v_72") (= s_13 "v_81")))
(assert (=> (= s_17 "v_99") (= s_16 "v_108")))
(assert (= s_6 v_0))
(assert (not (and  (= s_1 v_131)  (= s_2 v_132)  (= s_3 v_133)  (= s_4 v_134)  (= s_5 v_135) )))
(check-sat)
